(set-logic ALL)
(declare-fun var0 () String)
(assert (str.in_re var0 (re.++ (re.+ (re.* (str.to_re "0"))) (re.++ (re.union (re.+ (str.to_re "1")) (re.+ (str.to_re "2"))) (re.++ (re.* (re.* (str.to_re "3"))) (re.++ (re.* (re.union (str.to_re "444") (str.to_re "555"))) (re.++ (re.union (re.union (str.to_re "6") (str.to_re "77")) (re.union (str.to_re "88") (str.to_re "999"))) (re.++ (re.union (re.* (str.to_re "a")) (re.* (str.to_re "bb"))) (re.++ (re.* (re.* (str.to_re "c"))) (re.++ (re.+ (re.+ (str.to_re "d"))) (re.++ (re.* (re.union (str.to_re "eee") (str.to_re "fff"))) (re.++ (re.union (re.union (str.to_re "gg") (str.to_re "hhh")) (re.union (str.to_re "ii") (str.to_re "j"))) (re.union (re.+ (str.to_re "kkk")) (re.+ (str.to_re "l")))))))))))))))
(check-sat)